150 9037546
2 75 34 117 65 23 70 56 110 108 140 95 72 68 142 128 98 69 138 44 122 101 121 115 113 31 96 21 134 62 85 124 22 127 86 123 103 132 80 66 15 105 106 40 130 120 92 107 125 118 87 89 53 3 111 48 71 18 116 77 119 136 39 1 52 143 28 114 11 147 97 24 46 4 137 67 109 29 10 129 141 76 55 54 135 82 81 79 25 14 9 126 38 37 64 8 42 131 50 146 58 63 5 41 73 35 74 99 94 91 93 16 90 150 19 83 139 12 144 6 47 88 100 84 27 43 148 145 61 7 20 45 104 30 133 112 49 32 60 149 17 78 13 36 51 102 57 26 59 33 
